c ren 1 -> 1
c ren 2 -> 2
c ren 3 -> 3
c ren 4 -> 4
c ren 5 -> 5
c ren 6 -> 6
c ren 7 -> 7
c ren 8 -> 8
c ren 9 -> 9
c ren 10 -> 10
c ren 11 -> 11
c ren 12 -> 12
c ren 13 -> 13
c ren 14 -> 14
c ren 15 -> 15
c ren 16 -> 16
c ren 17 -> 17
c ren 18 -> 18
c ren 19 -> 19
c ren 20 -> 20
c ren 21 -> 21
c ren 22 -> 22
c ren 23 -> 23
c ren 24 -> 24
c ren 25 -> 25
c ren 26 -> 26
c ren 27 -> 27
c ren 28 -> 28
c ren 29 -> 29
c ren 30 -> 30
c ren 31 -> 31
c ren 32 -> 32
c ren 33 -> 33
c ren 34 -> 34
c ren 35 -> 35
c ren 36 -> 36
c ren 37 -> 37
c ren 38 -> 38
c ren 39 -> 39
c ren 40 -> 40
c ren 41 -> 41
c ren 42 -> 42
c ren 43 -> 43
c ren 44 -> 44
c ren 45 -> 45
c ren 46 -> 46
c ren 47 -> 47
c ren 48 -> 48
c ren 49 -> 49
c ren 50 -> 50
c ren 51 -> 51
c ren 52 -> 52
c ren 53 -> 53
c ren 54 -> 54
c ren 55 -> 55
c ren 56 -> 56
c ren 57 -> 57
c ren 58 -> 58
c ren 59 -> 59
c ren 60 -> 60
c ren 61 -> 61
c ren 62 -> 62
c ren 63 -> 63
c ren 64 -> 64
c ren 65 -> 65
c ren 66 -> 66
c ren 67 -> 67
c ren 68 -> 68
c ren 69 -> 69
c ren 70 -> 70
c ren 71 -> 71
c ren 72 -> 72
c ren 73 -> 73
c ren 74 -> 74
c ren 75 -> 75
c ren 76 -> 76
c ren 77 -> 77
c ren 78 -> 78
c ren 79 -> 79
c ren 80 -> 80
c ren 81 -> 81
c ren 82 -> 82
c ren 83 -> 83
c ren 84 -> 84
c ren 85 -> 85
c ren 86 -> 86
c ren 87 -> 87
c ren 88 -> 88
c ren 89 -> 89
c ren 90 -> 90
c ren 91 -> 91
c ren 92 -> 92
c ren 93 -> 93
c ren 94 -> 94
c ren 95 -> 95
c ren 96 -> 96
c ren 97 -> 97
c ren 98 -> 98
c ren 99 -> 99
c ren 100 -> 100
c ren 101 -> 101
c ren 102 -> 102
c ren 103 -> 103
c ren 104 -> 104
c ren 106 -> 105
c ren 109 -> 106
c ren 112 -> 107
c ren 123 -> 108
c ren 125 -> 109
c ren 129 -> 110
c ren 137 -> 111
c ren 141 -> 112
c ren 145 -> 113
c ren 149 -> 114
c ren 153 -> 115
c ren 157 -> 116
c ren 161 -> 117
c ren 165 -> 118
c ren 171 -> 119
c ren 175 -> 120
c ren 179 -> 121
c ren 185 -> 122
c ren 189 -> 123
c ren 193 -> 124
c ren 197 -> 125
c ren 201 -> 126
c ren 205 -> 127
c ren 221 -> 128
c ren 223 -> 129
c ren 229 -> 130
c ren 233 -> 131
c ren 237 -> 132
c ren 243 -> 133
c ren 247 -> 134
c ren 251 -> 135
c ren 257 -> 136
c ren 261 -> 137
c ren 267 -> 138
c ren 271 -> 139
c ren 275 -> 140
c ren 287 -> 141
c ren 291 -> 142
c ren 295 -> 143
c ren 301 -> 144
c ren 304 -> 145
c ren 308 -> 146
c ren 311 -> 147
c ren 314 -> 148
c ren 317 -> 149
c ren 321 -> 150
c ren 327 -> 151
c ren 331 -> 152
c ren 335 -> 153
c ren 338 -> 154
c ren 341 -> 155
c ren 344 -> 156
c ren 347 -> 157
c ren 350 -> 158
c ren 354 -> 159
c ren 360 -> 160
c ren 364 -> 161
c ren 367 -> 162
c ren 376 -> 163
c ren 378 -> 164
c ren 382 -> 165
c ren 385 -> 166
c ren 388 -> 167
c ren 392 -> 168
c ren 398 -> 169
c ren 402 -> 170
c ren 406 -> 171
c ren 412 -> 172
c ren 416 -> 173
c ren 420 -> 174
c ren 426 -> 175
c ren 432 -> 176
c ren 436 -> 177
c ren 442 -> 178
c ren 446 -> 179
c ren 450 -> 180
c ren 456 -> 181
c ren 459 -> 182
c ren 472 -> 183
c ren 474 -> 184
c ren 480 -> 185
c ren 483 -> 186
c ren 486 -> 187
p cnf 187 774
a 1 2 3 4 5 6 7 8 9 10 11 12 13 14 15 16 17 18 19 20 21 22 23 24 25 26 27 28 29 30 31 32 33 34 35 36 37 38 39 40 41 42 43 44 45 46 47 48 49 50 51 52 53 54 55 56 57 58 59 60 61 62 63 64 65 66 67 68 69 70 71 72 73 74 75 76 77 78 79 80 81 82 83 84 85 86 87 88 89 90 91 92 93 94 95 96 97 0
d 98 1 6 0
d 99 2 8 0
d 100 55 0
d 101 4 7 0
d 102 3 8 0
d 103 96 97 0
d 104 93 94 0
e 105 106 107 108 109 110 111 112 113 114 115 116 117 118 119 120 121 122 123 124 125 126 127 128 129 130 131 132 133 134 135 136 137 138 139 140 141 142 143 144 145 146 147 148 149 150 151 152 153 154 155 156 157 158 159 160 161 162 163 164 165 166 167 168 169 170 171 172 173 174 175 176 177 178 179 180 181 182 183 184 185 186 187 0
1 -10 -105 0
-1 -6 -10 105 0
-1 -6 10 -105 0
6 10 105 0
6 -10 -105 0
1 10 105 0
2 -11 -106 0
-2 -5 -11 106 0
5 54 145 0
-2 -5 11 -106 0
2 54 145 0
2 -54 -145 0
-2 -5 -54 145 0
106 108 0
-1 -2 -6 -7 -9 -13 -16 -105 -106 -107 -108 0
-10 11 107 0
10 -11 107 0
-10 -11 -107 0
10 11 -107 0
1 -6 -9 13 -16 -105 -106 -107 -108 0
2 -7 -9 -13 16 -105 -106 -107 -108 0
1 6 9 13 16 -105 -106 107 -108 0
-1 6 -7 -9 -13 16 -105 -106 -107 -108 0
1 6 -9 13 16 -105 -106 -107 -108 0
2 7 9 13 16 -105 -106 107 -108 0
1 -57 -147 0
-1 -7 -57 147 0
1 -2 -6 9 13 -16 -105 -106 107 -108 0
-1 -7 13 108 0
2 7 -9 13 16 -105 -106 -107 -108 0
1 57 147 0
-1 6 -7 9 -13 16 -105 -106 107 -108 0
6 7 -9 13 16 -105 -106 -107 -108 0
1 -13 108 0
5 -54 -145 0
2 -60 -148 0
-2 -6 -60 148 0
-2 -6 7 9 13 -16 -105 -106 107 -108 0
6 -60 -148 0
-2 -6 16 108 0
7 -13 108 0
2 60 148 0
1 2 9 13 16 -105 107 -108 0
6 60 148 0
6 -16 108 0
3 -17 -109 0
-3 -5 -17 109 0
5 61 149 0
-3 -5 17 -109 0
3 61 149 0
3 -61 -149 0
-3 -5 -61 149 0
109 128 0
-26 -27 35 -36 -37 -38 108 -109 -110 -111 -112 -113 -114 -115 -116 -117 -118 -119 -120 -121 -122 -123 -124 -125 -126 -128 0
6 7 9 13 16 -105 -106 107 -108 0
-15 16 17 -110 0
15 -16 -17 110 0
15 16 -17 -110 0
-15 -16 17 110 0
15 -16 17 -110 0
-15 -16 -17 -110 0
15 16 17 110 0
-15 16 -17 110 0
110 128 0
-25 -28 35 -36 -37 -38 108 -109 -110 -111 -112 -113 -114 -115 -116 -117 -118 -119 -120 -121 -122 -123 -124 -125 -126 -127 -128 0
-9 107 108 0
10 -18 -111 0
11 18 111 0
11 -18 -111 0
-10 -11 -18 111 0
10 18 111 0
9 -107 108 0
-10 -11 18 -111 0
111 128 0
-14 15 18 -112 0
14 -15 -18 112 0
14 15 -18 -112 0
-14 -15 18 112 0
14 -15 18 -112 0
-14 -15 -18 -112 0
14 15 18 112 0
-14 15 -18 112 0
112 128 0
25 27 -35 -36 -37 38 108 -109 -110 -111 -112 -113 -114 -115 -116 -117 -118 -119 -120 -121 -122 -123 -124 -125 -126 -127 -128 0
-12 13 14 -113 0
12 -13 -14 113 0
12 13 -14 -113 0
-12 -13 14 113 0
12 -13 14 -113 0
-12 -13 -14 -113 0
12 13 14 113 0
-12 13 -14 113 0
113 128 0
26 28 -35 -36 -37 38 108 -109 -110 -111 -112 -113 -114 -115 -116 -117 -118 -119 -120 -121 -122 -123 -124 -125 -126 -127 -128 0
1 -20 -114 0
-1 -8 -20 114 0
8 64 155 0
-1 -8 20 -114 0
1 64 155 0
1 -64 -155 0
-1 -8 -64 155 0
114 128 0
27 28 -35 -36 -37 38 108 -109 -110 -111 -112 -113 -114 -115 -116 -117 -118 -119 -120 -121 -122 -123 -124 -125 -126 -127 -128 0
2 -23 -115 0
-2 -7 -23 115 0
7 67 156 0
-2 -7 23 -115 0
2 67 156 0
2 -67 -156 0
-2 -7 -67 156 0
115 128 0
3 -26 -116 0
-3 -6 -26 116 0
6 70 157 0
-3 -6 26 -116 0
3 70 157 0
3 -70 -157 0
-3 -6 -70 157 0
116 128 0
-25 -28 -35 36 37 -38 108 -109 -110 -111 -112 -113 -114 -115 -116 -117 -118 -119 -120 -121 -122 -123 -124 -125 -126 -127 -128 0
4 -27 -117 0
-4 -5 -27 117 0
5 71 158 0
-4 -5 27 -117 0
4 71 158 0
4 -71 -158 0
-4 -5 -71 158 0
117 128 0
-25 26 27 -118 0
25 -26 -27 118 0
25 26 -27 -118 0
-25 -26 27 118 0
25 -26 27 -118 0
-25 -26 -27 -118 0
25 26 27 118 0
-25 26 -27 118 0
118 128 0
25 27 35 36 37 38 108 -109 -110 -111 -112 -113 -114 -115 -116 -117 -118 -119 -120 -121 -122 -123 -124 -125 -126 -127 -128 0
15 16 -28 -119 0
-15 -18 -28 119 0
17 18 28 119 0
15 17 -28 -119 0
-16 -17 -28 119 0
17 18 -28 -119 0
16 18 28 119 0
-16 -17 28 -119 0
16 18 -28 -119 0
-15 -18 28 -119 0
15 17 28 119 0
119 128 0
26 28 35 36 37 38 108 -109 -110 -111 -112 -113 -114 -115 -116 -117 -118 -119 -120 -121 -122 -123 -124 -125 -126 -127 -128 0
-24 25 28 -120 0
24 -25 -28 120 0
24 25 -28 -120 0
-24 -25 28 120 0
24 -25 28 -120 0
-24 -25 -28 -120 0
24 25 28 120 0
-24 25 -28 120 0
120 128 0
27 28 35 36 37 38 108 -109 -110 -111 -112 -113 -114 -115 -116 -117 -118 -119 -120 -121 -122 -123 -124 -125 -126 -127 -128 0
-22 23 24 -121 0
22 -23 -24 121 0
22 23 -24 -121 0
-22 -23 24 121 0
22 -23 24 -121 0
-22 -23 -24 -121 0
22 23 24 121 0
-22 23 -24 121 0
121 128 0
-108 128 0
14 29 122 0
-13 -14 -29 122 0
14 -29 -122 0
13 29 122 0
-13 -14 29 -122 0
13 -29 -122 0
122 128 0
5 -61 -149 0
-21 22 29 -123 0
21 -22 -29 123 0
21 22 -29 -123 0
-21 -22 29 123 0
21 -22 29 -123 0
-21 -22 -29 -123 0
21 22 29 123 0
-21 22 -29 123 0
123 128 0
105 108 0
-19 20 21 -124 0
19 -20 -21 124 0
19 20 -21 -124 0
-19 -20 21 124 0
19 -20 21 -124 0
-19 -20 -21 -124 0
19 20 21 124 0
-19 20 -21 124 0
124 128 0
2 -31 -125 0
-2 -8 -31 125 0
-2 -8 31 -125 0
8 31 125 0
8 -31 -125 0
2 31 125 0
125 128 0
3 -34 -126 0
-3 -7 -34 126 0
7 77 166 0
-3 -7 34 -126 0
3 77 166 0
3 -77 -166 0
-3 -7 -77 166 0
126 128 0
4 -37 -127 0
-4 -6 -37 127 0
6 80 167 0
-4 -6 37 -127 0
4 80 167 0
4 -80 -167 0
-4 -6 -80 167 0
127 128 0
8 -64 -155 0
5 -71 -158 0
7 -67 -156 0
6 -70 -157 0
26 28 -38 128 0
7 -77 -166 0
-25 -28 38 128 0
-36 37 128 0
25 26 -38 128 0
25 27 -38 128 0
27 28 -38 128 0
36 -37 128 0
-35 36 38 128 0
6 -80 -167 0
35 36 -38 128 0
-26 -27 38 128 0
35 -36 38 128 0
-35 -36 -38 128 0
-33 34 35 -129 0
33 -34 -35 129 0
33 34 -35 -129 0
-33 -34 35 129 0
33 -34 35 -129 0
-33 -34 -35 -129 0
33 34 35 129 0
-33 34 -35 129 0
129 141 0
-4 -31 -32 -48 -50 128 -129 -130 -131 -132 -133 -134 -135 -136 -137 -138 -139 -140 -141 0
22 23 -39 -130 0
-22 -29 -39 130 0
24 29 39 130 0
22 24 -39 -130 0
-23 -24 -39 130 0
24 29 -39 -130 0
22 23 39 130 0
23 29 39 130 0
-23 -24 39 -130 0
23 29 -39 -130 0
-22 -29 39 -130 0
22 24 39 130 0
130 141 0
4 -31 -32 -48 50 128 -129 -130 -131 -132 -133 -134 -135 -136 -137 -138 -139 -140 -141 0
-32 33 39 -131 0
32 -33 -39 131 0
32 33 -39 -131 0
-32 -33 39 131 0
32 -33 39 -131 0
-32 -33 -39 -131 0
32 33 39 131 0
-32 33 -39 131 0
131 141 0
-30 31 32 -132 0
30 -31 -32 132 0
30 31 -32 -132 0
-30 -31 32 132 0
30 -31 32 -132 0
-30 -31 -32 -132 0
30 31 32 132 0
-30 31 -32 132 0
132 141 0
-4 -30 -40 -48 -50 128 -129 -130 -131 -132 -133 -134 -135 -136 -137 -138 -139 -140 -141 0
21 40 133 0
21 -40 -133 0
-20 -21 -40 133 0
20 40 133 0
-20 -21 40 -133 0
20 -40 -133 0
133 141 0
4 -30 -40 -48 50 128 -129 -130 -131 -132 -133 -134 -135 -136 -137 -138 -139 -140 -141 0
3 -42 -134 0
-3 -8 -42 134 0
-3 -8 42 -134 0
8 42 134 0
8 -42 -134 0
3 42 134 0
134 141 0
8 -40 128 -133 0
4 -45 -135 0
-4 -7 -45 135 0
-4 -7 45 -135 0
7 45 135 0
7 -45 -135 0
4 45 135 0
135 141 0
-4 -8 30 31 48 -50 128 -129 -130 -131 -132 -133 -134 -135 -136 -137 -138 -139 -140 -141 0
-36 -38 -46 136 0
38 46 136 0
36 -46 -136 0
38 -46 -136 0
-36 -38 46 -136 0
36 46 136 0
136 141 0
4 30 31 48 50 128 -129 -130 -131 -132 -133 -134 -135 -136 -137 -138 -139 -140 -141 0
-44 45 46 -137 0
44 -45 -46 137 0
44 45 -46 -137 0
-44 -45 46 137 0
44 -45 46 -137 0
-44 -45 -46 -137 0
44 45 46 137 0
-44 45 -46 137 0
137 141 0
33 34 -47 -138 0
-33 -39 -47 138 0
35 39 47 138 0
33 35 -47 -138 0
-34 -35 -47 138 0
35 39 -47 -138 0
34 39 47 138 0
-34 -35 47 -138 0
34 39 -47 -138 0
-33 -39 47 -138 0
33 35 47 138 0
138 141 0
-4 -8 30 32 48 -50 128 -129 -130 -131 -132 -133 -134 -135 -136 -137 -138 -139 -140 -141 0
-43 44 47 -139 0
43 -44 -47 139 0
43 44 -47 -139 0
-43 -44 47 139 0
43 -44 47 -139 0
-43 -44 -47 -139 0
43 44 47 139 0
-43 44 -47 139 0
139 141 0
4 30 32 48 50 128 -129 -130 -131 -132 -133 -134 -135 -136 -137 -138 -139 -140 -141 0
-41 42 43 -140 0
41 -42 -43 140 0
41 42 -43 -140 0
-41 -42 43 140 0
41 -42 43 -140 0
-41 -42 -43 -140 0
41 42 43 140 0
-41 42 -43 140 0
140 141 0
8 30 32 48 50 128 -129 -130 -131 -133 -134 -135 -136 -137 -138 -139 -140 -141 0
-4 -8 32 40 48 -50 128 -129 -130 -131 -132 -133 -134 -135 -136 -137 -138 -139 -140 -141 0
30 31 -48 141 0
-4 -8 31 40 48 -50 128 -129 -130 -131 -132 -133 -134 -135 -136 -137 -138 -139 -140 -141 0
8 40 48 50 128 -129 -130 -131 -132 -134 -135 -136 -137 -138 -139 -140 -141 0
-31 -32 48 141 0
4 31 40 48 50 128 -129 -130 -131 -132 -133 -134 -135 -136 -137 -138 -139 -140 -141 0
-30 -40 48 141 0
8 48 50 128 -129 -130 -131 -132 -133 -134 -135 -136 -137 -138 -139 -140 -141 0
-128 141 0
4 -91 -182 0
-4 -8 -91 182 0
8 -91 -182 0
-4 -8 50 141 0
31 40 -48 141 0
4 91 182 0
8 91 182 0
8 -50 141 0
44 45 -51 -142 0
-44 -47 -51 142 0
46 47 51 142 0
44 46 -51 -142 0
-45 -46 -51 142 0
46 47 -51 -142 0
44 45 51 142 0
45 47 51 142 0
-45 -46 51 -142 0
45 47 -51 -142 0
-44 -47 51 -142 0
44 46 51 142 0
142 163 0
-57 -58 -66 -73 141 -142 -143 -144 -145 -146 -147 -148 -149 -150 -151 -152 -153 -154 -155 -156 -157 -158 -159 -160 -161 -162 -163 0
-49 50 51 -143 0
49 -50 -51 143 0
49 50 -51 -143 0
-49 -50 51 143 0
49 -50 51 -143 0
-49 -50 -51 -143 0
49 50 51 143 0
-49 50 -51 143 0
143 163 0
41 42 -52 -144 0
-41 -48 -52 144 0
43 48 52 144 0
41 43 -52 -144 0
-42 -43 -52 144 0
43 48 -52 -144 0
41 42 52 144 0
42 48 52 144 0
-42 -43 52 -144 0
42 48 -52 -144 0
-41 -48 52 -144 0
41 43 52 144 0
144 163 0
-2 -5 54 -145 0
5 11 106 0
5 -11 -106 0
2 11 106 0
145 163 0
-53 54 98 -146 0
53 -54 -98 146 0
53 -54 98 -146 0
-53 54 -98 146 0
53 54 -98 -146 0
-53 -54 -98 -146 0
53 54 98 146 0
-53 -54 98 146 0
146 163 0
57 -66 73 141 -142 -143 -144 -145 -146 -147 -148 -149 -150 -151 -152 -153 -154 -155 -156 -157 -158 -159 -160 -161 -162 -163 0
-1 -7 57 -147 0
-1 -2 -6 -7 9 -13 -16 -105 -106 107 -108 0
-1 2 -7 9 -13 16 -105 -106 107 -108 0
-2 -6 7 -9 13 -16 -105 -106 -107 -108 0
147 163 0
58 -66 73 141 -142 -143 -144 -145 -146 -147 -148 -149 -150 -151 -152 -153 -154 -155 -156 -157 -158 -159 -160 -161 -162 -163 0
-2 -6 60 -148 0
7 -57 -147 0
2 -16 108 0
7 57 147 0
148 163 0
-57 -58 66 -73 141 -142 -143 -144 -145 -146 -147 -148 -149 -150 -151 -152 -153 -154 -155 -156 -157 -158 -159 -160 -161 162 -163 0
-3 -5 61 -149 0
5 17 109 0
5 -17 -109 0
3 17 109 0
149 163 0
-59 60 61 -150 0
59 -60 -61 150 0
59 60 -61 -150 0
-59 -60 61 150 0
59 -60 61 -150 0
-59 -60 -61 -150 0
59 60 61 150 0
-59 60 -61 150 0
150 163 0
54 -62 -151 0
62 98 151 0
-62 98 -151 0
-54 -62 -98 151 0
54 62 151 0
-54 62 -98 -151 0
151 163 0
-58 59 62 -152 0
58 -59 -62 152 0
58 59 -62 -152 0
-58 -59 62 152 0
58 -59 62 -152 0
-58 -59 -62 -152 0
58 59 62 152 0
-58 59 -62 152 0
152 163 0
57 66 73 141 -142 -143 -144 -145 -146 -147 -148 -149 -150 -151 -152 -153 -154 -155 -156 -157 -158 -159 -160 -161 162 -163 0
-56 57 58 -153 0
56 -57 -58 153 0
56 57 -58 -153 0
-56 -57 58 153 0
56 -57 58 -153 0
-56 -57 -58 -153 0
56 57 58 153 0
-56 57 -58 153 0
153 163 0
58 66 73 141 -142 -143 -144 -145 -146 -147 -148 -149 -150 -151 -152 -153 -154 -155 -156 -157 -158 -159 -160 -161 162 -163 0
-55 -56 154 0
55 56 154 0
-55 56 -154 0
55 -56 -154 0
154 163 0
-141 163 0
-1 -8 64 -155 0
8 20 114 0
8 -20 -114 0
1 20 114 0
155 163 0
-2 -7 67 -156 0
7 23 115 0
7 -23 -115 0
2 23 115 0
156 163 0
32 40 -48 141 0
-3 -6 70 -157 0
6 26 116 0
6 -26 -116 0
3 26 116 0
157 163 0
-4 -5 71 -158 0
5 27 117 0
5 -27 -117 0
4 27 117 0
158 163 0
-69 70 71 -159 0
69 -70 -71 159 0
69 70 -71 -159 0
-69 -70 71 159 0
69 -70 71 -159 0
-69 -70 -71 -159 0
69 70 71 159 0
-69 70 -71 159 0
159 163 0
59 60 -72 -160 0
-59 -62 -72 160 0
61 62 72 160 0
59 61 -72 -160 0
-60 -61 -72 160 0
61 62 -72 -160 0
60 62 72 160 0
-60 -61 72 -160 0
60 62 -72 -160 0
-59 -62 72 -160 0
59 61 72 160 0
160 163 0
-68 69 72 -161 0
68 -69 -72 161 0
68 69 -72 -161 0
-68 -69 72 161 0
68 -69 72 -161 0
-68 -69 -72 -161 0
68 69 72 161 0
-68 69 -72 161 0
161 163 0
-67 68 162 0
67 -68 162 0
-67 -68 -162 0
67 68 -162 0
-66 162 163 0
57 -73 163 0
58 -73 163 0
66 -162 163 0
-57 -58 73 163 0
-65 66 73 -164 0
65 -66 -73 164 0
65 66 -73 -164 0
-65 -66 73 164 0
65 -66 73 -164 0
-65 -66 -73 -164 0
65 66 73 164 0
-65 66 -73 164 0
164 183 0
-87 -92 -93 -94 -101 -104 163 -164 -165 -166 -167 -168 -169 -170 -171 -172 -173 -174 -175 -176 -177 -178 -179 -180 -181 -182 -183 0
-63 64 65 -165 0
63 -64 -65 165 0
63 64 -65 -165 0
-63 -64 65 165 0
63 -64 65 -165 0
-63 -64 -65 -165 0
63 64 65 165 0
-63 64 -65 165 0
165 183 0
87 -92 93 94 101 -104 163 -164 -165 -166 -167 -168 -169 -170 -171 -172 -173 -174 -175 -176 -177 -178 -179 -180 -181 -182 -183 0
-3 -7 77 -166 0
7 34 126 0
7 -34 -126 0
3 34 126 0
166 183 0
-87 92 -93 -94 -101 104 163 -164 -165 -166 -167 -168 -169 -170 -171 -172 -173 -174 -175 -176 -177 -178 -179 -180 -181 -182 -183 0
-4 -6 80 -167 0
6 37 127 0
6 -37 -127 0
4 37 127 0
167 183 0
-79 80 -168 0
-79 -80 168 0
79 -80 -168 0
79 80 168 0
168 183 0
87 -92 -93 94 -101 -104 163 -164 -165 -166 -167 -168 -169 -170 -171 -172 -173 -174 -175 -176 -177 -178 -179 -180 -181 -182 -183 0
69 70 -81 -169 0
-69 -72 -81 169 0
71 72 81 169 0
69 71 -81 -169 0
-70 -71 -81 169 0
71 72 -81 -169 0
69 70 81 169 0
70 72 81 169 0
-70 -71 81 -169 0
70 72 -81 -169 0
-69 -72 81 -169 0
69 71 81 169 0
169 183 0
87 -88 -92 -93 94 -101 163 -164 -165 -166 -167 -168 -169 -170 -171 -172 -173 -174 -175 -176 -177 -178 -179 -180 -181 -182 -183 0
-78 79 81 -170 0
78 -79 -81 170 0
78 79 -81 -170 0
-78 -79 81 170 0
78 -79 81 -170 0
-78 -79 -81 -170 0
78 79 81 170 0
-78 79 -81 170 0
170 183 0
-76 77 78 -171 0
76 -77 -78 171 0
76 77 -78 -171 0
-76 -77 78 171 0
76 -77 78 -171 0
-76 -77 -78 -171 0
76 77 78 171 0
-76 77 -78 171 0
171 183 0
87 88 92 -93 94 -101 104 163 -164 -165 -166 -167 -168 -169 -170 -171 -172 -173 -174 -175 -176 -177 -178 -179 -180 -181 -182 -183 0
66 67 -82 -172 0
-66 -73 -82 172 0
68 73 82 172 0
66 68 -82 -172 0
-67 -68 -82 172 0
68 73 -82 -172 0
66 67 82 172 0
67 73 82 172 0
-67 -68 82 -172 0
67 73 -82 -172 0
-66 -73 82 -172 0
66 68 82 172 0
172 183 0
-87 -92 93 -94 101 -104 163 -164 -165 -166 -167 -168 -169 -170 -171 -172 -173 -174 -175 -176 -177 -178 -179 -180 -181 -182 -183 0
-75 76 82 -173 0
75 -76 -82 173 0
75 76 -82 -173 0
-75 -76 82 173 0
75 -76 82 -173 0
-75 -76 -82 -173 0
75 76 82 173 0
-75 76 -82 173 0
173 183 0
-87 -88 -92 93 -94 101 163 -164 -165 -166 -167 -168 -169 -170 -171 -172 -173 -174 -175 -176 -177 -178 -179 -180 -181 -182 -183 0
-74 75 99 -174 0
74 -75 -99 174 0
74 -75 99 -174 0
-74 75 -99 174 0
74 75 -99 -174 0
-74 -75 -99 -174 0
74 75 99 174 0
-74 -75 99 174 0
174 183 0
87 92 93 94 101 104 163 -164 -165 -166 -167 -168 -169 -170 -171 -172 -173 -174 -175 -176 -177 -178 -179 -180 -181 -182 -183 0
65 83 175 0
-64 -65 -83 175 0
65 -83 -175 0
64 83 175 0
-64 -65 83 -175 0
64 -83 -175 0
175 183 0
-87 88 92 93 -94 101 104 163 -164 -165 -166 -167 -168 -169 -170 -171 -172 -173 -174 -175 -176 -177 -178 -179 -180 -181 -182 -183 0
79 -87 -176 0
-79 -81 -87 176 0
81 87 176 0
81 -87 -176 0
-79 -81 87 -176 0
79 87 176 0
176 183 0
-163 183 0
-86 87 101 -177 0
-86 -87 -101 -177 0
-86 87 -101 177 0
86 87 -101 -177 0
86 -87 101 -177 0
177 183 0
76 77 -88 -178 0
-76 -82 -88 178 0
78 82 88 178 0
76 78 -88 -178 0
-77 -78 -88 178 0
78 82 -88 -178 0
76 77 88 178 0
77 82 88 178 0
-77 -78 88 -178 0
77 82 -88 -178 0
-76 -82 88 -178 0
178 183 0
86 87 101 177 0
-85 86 88 -179 0
85 -86 -88 179 0
85 86 -88 -179 0
-85 -86 88 179 0
85 -86 88 -179 0
-85 -86 -88 -179 0
85 86 88 179 0
-85 86 -88 179 0
179 183 0
-84 85 102 -180 0
84 -85 -102 180 0
84 -85 102 -180 0
-84 85 -102 180 0
84 85 -102 -180 0
-84 -85 -102 -180 0
84 85 102 180 0
-84 -85 102 180 0
180 183 0
74 -75 -89 -99 -181 0
75 83 -89 181 0
74 89 99 -181 0
-74 -83 -89 99 -181 0
-74 -83 89 99 181 0
-74 75 -83 89 181 0
74 -89 99 181 0
-75 83 -89 -99 -181 0
-74 75 -83 -89 -181 0
74 75 89 -181 0
181 183 0
75 83 89 -181 0
-4 -8 91 -182 0
4 32 40 48 50 128 -129 -130 -131 -132 -133 -134 -135 -136 -137 -138 -139 -140 -141 0
4 -50 141 0
30 32 -48 141 0
182 183 0
83 89 99 -181 0
-86 -87 101 177 0
86 -87 -101 177 0
74 -75 89 -99 181 0
83 -89 99 181 0
90 -91 -92 184 0
-90 -91 92 184 0
90 91 92 184 0
-90 91 -92 184 0
-49 -52 92 103 183 -184 -185 -186 -187 0
-84 -89 -95 185 0
89 95 102 185 0
-85 -95 -102 185 0
84 85 95 185 0
85 89 95 185 0
84 95 102 185 0
50 52 -103 183 -184 -185 -186 -187 0
-90 -96 186 0
90 96 186 0
51 52 -103 183 -184 -185 -186 -187 0
-95 -97 187 0
95 97 187 0
49 50 -103 183 -184 -185 -186 -187 0
-9 53 183 -184 -185 -186 -187 0
9 -53 183 -184 -185 -186 -187 0
12 -100 183 -184 -185 -186 -187 0
-12 100 183 -184 -185 -186 -187 0
40 -83 183 -184 -185 -186 -187 0
-30 74 83 183 -184 -185 -186 -187 0
-19 63 183 -184 -185 -186 -187 0
19 -63 183 -184 -185 -186 -187 0
41 48 84 -89 183 -184 -185 -186 -187 0
-40 83 183 -184 -185 -186 -187 0
-41 48 -84 -89 183 -184 -185 -186 -187 0
-41 48 84 89 183 -184 -185 -186 -187 0
41 -48 -84 -89 183 -184 -185 -186 -187 0
30 -74 183 -184 -185 -186 -187 0
-30 -40 74 183 -184 -185 -186 -187 0
49 52 90 -95 183 -184 -185 -186 -187 0
-41 -48 -84 89 183 -184 -185 -186 -187 0
41 -48 84 89 183 -184 -185 -186 -187 0
-49 52 -90 -95 183 -184 -185 -186 -187 0
-49 52 90 95 183 -184 -185 -186 -187 0
49 -52 -90 -95 183 -184 -185 -186 -187 0
41 48 -84 89 183 -184 -185 -186 -187 0
-41 -48 84 -89 183 -184 -185 -186 -187 0
49 52 -90 95 183 -184 -185 -186 -187 0
-50 91 183 0
51 52 -91 -92 183 -184 -185 -186 -187 0
-49 -52 90 -95 183 -184 -185 -186 -187 0
49 -52 90 95 183 -184 -185 -186 -187 0
49 51 -91 183 0
50 -91 -92 183 0
-49 -52 -90 95 183 -184 -185 -186 -187 0
-50 -51 92 103 183 -184 -185 -186 -187 0
49 51 -103 183 -184 -185 -186 -187 0
-49 -52 91 103 183 -184 -185 -186 -187 0
